TCS_Benchmarks/redos_fix/regexlib1_output_distinct_1538_1537_1_0.txt
([Pp|]*)([0|Oo]*)
([Pp|]*)((OST|ost)*\.*\s*)([0|Oo]*)